c User generated cnf file
p cnf 12 22
-5 6 1 0 
1 -4 3 0 
9 -9 9 0 
-11 4 8 0 
1 7 -2 0 
7 1 -4 0 
-9 11 2 0 
5 5 -12 0 
12 -6 2 0 
-12 12 8 0 
2 8 -4 0 
8 -3 4 0 
2 3 -11 0 
12 9 -1 0 
6 -9 2 0 
10 8 -11 0 
-12 12 3 0 
12 1 -2 0 
7 -2 10 0 
5 -6 10 0 
5 -6 8 0 
2 -2 9 0 
